c description: Tseitin formula on , with even charge
c generator: CNFgen (0.9.0)
c copyright: (C) 2012-2020 Massimo Lauria <massimo.lauria@uniroma1.it>
c url: https://massimolauria.net/cnfgen
c
p cnf 20 130
1 2 3 -4 0
1 2 -3 4 0
1 -2 3 4 0
1 -2 -3 -4 0
-1 2 3 4 0
-1 2 -3 -4 0
-1 -2 3 -4 0
-1 -2 -3 4 0
1 5 6 -7 0
1 5 -6 7 0
1 -5 6 7 0
1 -5 -6 -7 0
-1 5 6 7 0
-1 5 -6 -7 0
-1 -5 6 -7 0
-1 -5 -6 7 0
8 9 -10 0
8 -9 10 0
-8 9 10 0
-8 -9 -10 0
5 11 12 -13 0
5 11 -12 13 0
5 -11 12 13 0
5 -11 -12 -13 0
-5 11 12 13 0
-5 11 -12 -13 0
-5 -11 12 -13 0
-5 -11 -12 13 0
14 -15 0
-14 15 0
2 11 14 16 -17 0
2 11 14 -16 17 0
2 11 -14 16 17 0
2 11 -14 -16 -17 0
2 -11 14 16 17 0
2 -11 14 -16 -17 0
2 -11 -14 16 -17 0
2 -11 -14 -16 17 0
-2 11 14 16 17 0
-2 11 14 -16 -17 0
-2 11 -14 16 -17 0
-2 11 -14 -16 17 0
-2 -11 14 16 -17 0
-2 -11 14 -16 17 0
-2 -11 -14 16 17 0
-2 -11 -14 -16 -17 0
3 6 8 12 15 18 -19 0
3 6 8 12 15 -18 19 0
3 6 8 12 -15 18 19 0
3 6 8 12 -15 -18 -19 0
3 6 8 -12 15 18 19 0
3 6 8 -12 15 -18 -19 0
3 6 8 -12 -15 18 -19 0
3 6 8 -12 -15 -18 19 0
3 6 -8 12 15 18 19 0
3 6 -8 12 15 -18 -19 0
3 6 -8 12 -15 18 -19 0
3 6 -8 12 -15 -18 19 0
3 6 -8 -12 15 18 -19 0
3 6 -8 -12 15 -18 19 0
3 6 -8 -12 -15 18 19 0
3 6 -8 -12 -15 -18 -19 0
3 -6 8 12 15 18 19 0
3 -6 8 12 15 -18 -19 0
3 -6 8 12 -15 18 -19 0
3 -6 8 12 -15 -18 19 0
3 -6 8 -12 15 18 -19 0
3 -6 8 -12 15 -18 19 0
3 -6 8 -12 -15 18 19 0
3 -6 8 -12 -15 -18 -19 0
3 -6 -8 12 15 18 -19 0
3 -6 -8 12 15 -18 19 0
3 -6 -8 12 -15 18 19 0
3 -6 -8 12 -15 -18 -19 0
3 -6 -8 -12 15 18 19 0
3 -6 -8 -12 15 -18 -19 0
3 -6 -8 -12 -15 18 -19 0
3 -6 -8 -12 -15 -18 19 0
-3 6 8 12 15 18 19 0
-3 6 8 12 15 -18 -19 0
-3 6 8 12 -15 18 -19 0
-3 6 8 12 -15 -18 19 0
-3 6 8 -12 15 18 -19 0
-3 6 8 -12 15 -18 19 0
-3 6 8 -12 -15 18 19 0
-3 6 8 -12 -15 -18 -19 0
-3 6 -8 12 15 18 -19 0
-3 6 -8 12 15 -18 19 0
-3 6 -8 12 -15 18 19 0
-3 6 -8 12 -15 -18 -19 0
-3 6 -8 -12 15 18 19 0
-3 6 -8 -12 15 -18 -19 0
-3 6 -8 -12 -15 18 -19 0
-3 6 -8 -12 -15 -18 19 0
-3 -6 8 12 15 18 -19 0
-3 -6 8 12 15 -18 19 0
-3 -6 8 12 -15 18 19 0
-3 -6 8 12 -15 -18 -19 0
-3 -6 8 -12 15 18 19 0
-3 -6 8 -12 15 -18 -19 0
-3 -6 8 -12 -15 18 -19 0
-3 -6 8 -12 -15 -18 19 0
-3 -6 -8 12 15 18 19 0
-3 -6 -8 12 15 -18 -19 0
-3 -6 -8 12 -15 18 -19 0
-3 -6 -8 12 -15 -18 19 0
-3 -6 -8 -12 15 18 -19 0
-3 -6 -8 -12 15 -18 19 0
-3 -6 -8 -12 -15 18 19 0
-3 -6 -8 -12 -15 -18 -19 0
7 13 -20 0
7 -13 20 0
-7 13 20 0
-7 -13 -20 0
4 9 16 -18 0
4 9 -16 18 0
4 -9 16 18 0
4 -9 -16 -18 0
-4 9 16 18 0
-4 9 -16 -18 0
-4 -9 16 -18 0
-4 -9 -16 18 0
10 17 19 -20 0
10 17 -19 20 0
10 -17 19 20 0
10 -17 -19 -20 0
-10 17 19 20 0
-10 17 -19 -20 0
-10 -17 19 -20 0
-10 -17 -19 20 0